MoS2
2.464
	0.866  -0.5  0.0
	0.866   0.5  0.0
	0.0     0.0  10
Mo  S  
1   2
direct
	0.33  0.33  0.5
	0.66  0.66  0.435 (0.5 -1.6/(10*2.464))
	0.66  0.66  0.560
	
