graphene-alternative
2.464
	0.5  -0.866  0.0
	0.5   0.866  0.0
	0.0     0.0  1.0
C  
2   
direct
	0.0   0.0   0.5
	0.33  0.66  0.5
	
