sc
5
1.0 0.0 0.0
0.0 1.0 0.0
0.0 0.0 1.0
Ca
1
Direct
0.0 0.0 0.0
