graphene
2.464
	0.866  -0.5  0.0
	0.866   0.5  0.0
	0.0     0.0  10
C  
2   
direct
	0.33  0.33  0.5
	0.66  0.66  0.5
	
