fcc-prim
3.54
0.5 0.5 0.0
0.5 0.0 0.5
0.0 0.5 0.5
Ca
1
Direct
0.0 0.0 0.0
